(set-info :smt-lib-version 2.6)
(set-logic UF)
(set-info :source |Benchmarks from the paper: "Extending Sledgehammer with SMT Solvers" by Jasmin Blanchette, Sascha Bohme, and Lawrence C. Paulson, CADE 2011.  Translated to SMT2 by Andrew Reynolds and Morgan Deters.|)
(set-info :category "industrial")
(set-info :status sat)
(declare-sort S1 0)
(declare-sort S2 0)
(declare-sort S3 0)
(declare-sort S4 0)
(declare-sort S5 0)
(declare-sort S6 0)
(declare-sort S7 0)
(declare-sort S8 0)
(declare-sort S9 0)
(declare-sort S10 0)
(declare-sort S11 0)
(declare-sort S12 0)
(declare-sort S13 0)
(declare-sort S14 0)
(declare-sort S15 0)
(declare-sort S16 0)
(declare-fun f1 () S1)
(declare-fun f2 () S1)
(declare-fun f3 (S2 S3) S4)
(declare-fun f4 (S5 S4) S2)
(declare-fun f5 () S5)
(declare-fun f6 (S6 S4) S4)
(declare-fun f7 () S6)
(declare-fun f8 () S4)
(declare-fun f9 (S7 S8) S3)
(declare-fun f10 () S7)
(declare-fun f11 (S9 S8) S8)
(declare-fun f12 () S9)
(declare-fun f13 () S9)
(declare-fun f14 () S8)
(declare-fun f15 (S10 S3) S3)
(declare-fun f16 (S11 S3) S10)
(declare-fun f17 () S11)
(declare-fun f18 () S11)
(declare-fun f19 (S12 S8) S4)
(declare-fun f20 () S12)
(declare-fun f21 (S13 S4) S6)
(declare-fun f22 () S13)
(declare-fun f23 (S14 S3) S8)
(declare-fun f24 (S15 S8) S14)
(declare-fun f25 () S15)
(declare-fun f26 () S9)
(declare-fun f27 (S16 S8) S9)
(declare-fun f28 () S16)
(declare-fun f29 () S4)
(declare-fun f30 () S8)
(declare-fun f31 () S3)
(declare-fun f32 () S4)
(declare-fun f33 () S8)
(declare-fun f34 () S3)
(assert (not (= f1 f2)))
(assert (not (= (f3 (f4 f5 (f6 f7 f8)) (f9 f10 (f11 f12 (f11 f13 f14)))) f8)))
(assert (= (f11 f12 f14) f14))
(assert (forall ((?v0 S8)) (= (= f14 (f11 f12 ?v0)) (= f14 ?v0))))
(assert (forall ((?v0 S8)) (= (= (f11 f12 ?v0) f14) (= ?v0 f14))))
(assert (forall ((?v0 S8) (?v1 S8)) (= (= (f11 f12 ?v0) (f11 f13 ?v1)) false)))
(assert (forall ((?v0 S8) (?v1 S8)) (= (= (f11 f13 ?v0) (f11 f12 ?v1)) false)))
(assert (forall ((?v0 S8)) (= (= f14 (f11 f13 ?v0)) false)))
(assert (forall ((?v0 S8)) (= (= (f11 f13 ?v0) f14) false)))
(assert (forall ((?v0 S8)) (let ((?v_0 (f9 f10 ?v0))) (= (f15 (f16 f17 ?v_0) (f9 f10 (f11 f12 (f11 f13 f14)))) (f15 (f16 f18 ?v_0) ?v_0)))))
(assert (forall ((?v0 S8)) (let ((?v_0 (f19 f20 ?v0))) (= (f3 (f4 f5 ?v_0) (f9 f10 (f11 f12 (f11 f13 f14)))) (f6 (f21 f22 ?v_0) ?v_0)))))
(assert (forall ((?v0 S8)) (let ((?v_0 (f11 f26 ?v0))) (= (f23 (f24 f25 ?v_0) (f9 f10 (f11 f12 (f11 f13 f14)))) (f11 (f27 f28 ?v_0) ?v_0)))))
(assert (= (f3 (f4 f5 f29) (f9 f10 (f11 f12 (f11 f13 f14)))) f29))
(assert (= (f23 (f24 f25 f30) (f9 f10 (f11 f12 (f11 f13 f14)))) f30))
(assert (= (f15 (f16 f17 f31) (f9 f10 (f11 f12 (f11 f13 f14)))) f31))
(assert (forall ((?v0 S4)) (= (= (f3 (f4 f5 ?v0) (f9 f10 (f11 f12 (f11 f13 f14)))) f29) (= ?v0 f29))))
(assert (forall ((?v0 S8)) (= (= (f23 (f24 f25 ?v0) (f9 f10 (f11 f12 (f11 f13 f14)))) f30) (= ?v0 f30))))
(assert (forall ((?v0 S3) (?v1 S3)) (let ((?v_1 (f9 f10 (f11 f12 (f11 f13 f14)))) (?v_0 (f16 f17 ?v0))) (= (f15 ?v_0 (f15 (f16 f18 ?v_1) ?v1)) (f15 (f16 f17 (f15 ?v_0 ?v1)) ?v_1)))))
(assert (forall ((?v0 S4) (?v1 S3)) (let ((?v_1 (f9 f10 (f11 f12 (f11 f13 f14)))) (?v_0 (f4 f5 ?v0))) (= (f3 ?v_0 (f15 (f16 f18 ?v_1) ?v1)) (f3 (f4 f5 (f3 ?v_0 ?v1)) ?v_1)))))
(assert (forall ((?v0 S8) (?v1 S3)) (let ((?v_1 (f9 f10 (f11 f12 (f11 f13 f14)))) (?v_0 (f24 f25 ?v0))) (= (f23 ?v_0 (f15 (f16 f18 ?v_1) ?v1)) (f23 (f24 f25 (f23 ?v_0 ?v1)) ?v_1)))))
(assert (= (f3 (f4 f5 f32) (f9 f10 (f11 f12 (f11 f13 f14)))) f32))
(assert (= (f23 (f24 f25 f33) (f9 f10 (f11 f12 (f11 f13 f14)))) f33))
(assert (= (f15 (f16 f17 f34) (f9 f10 (f11 f12 (f11 f13 f14)))) f34))
(assert (= f30 (f11 f26 f14)))
(assert (forall ((?v0 S8) (?v1 S8)) (= (f19 f20 (f11 (f27 f28 ?v0) ?v1)) (f6 (f21 f22 (f19 f20 ?v0)) (f19 f20 ?v1)))))
(assert (forall ((?v0 S8) (?v1 S8)) (= (f11 f26 (f11 (f27 f28 ?v0) ?v1)) (f11 (f27 f28 (f11 f26 ?v0)) (f11 f26 ?v1)))))
(assert (forall ((?v0 S8) (?v1 S8)) (= (f6 (f21 f22 (f19 f20 ?v0)) (f19 f20 ?v1)) (f19 f20 (f11 (f27 f28 ?v0) ?v1)))))
(assert (forall ((?v0 S8) (?v1 S8)) (= (f11 (f27 f28 (f11 f26 ?v0)) (f11 f26 ?v1)) (f11 f26 (f11 (f27 f28 ?v0) ?v1)))))
(assert (forall ((?v0 S8) (?v1 S8) (?v2 S4)) (= (f6 (f21 f22 (f19 f20 ?v0)) (f6 (f21 f22 (f19 f20 ?v1)) ?v2)) (f6 (f21 f22 (f19 f20 (f11 (f27 f28 ?v0) ?v1))) ?v2))))
(assert (forall ((?v0 S8) (?v1 S8) (?v2 S8)) (= (f11 (f27 f28 (f11 f26 ?v0)) (f11 (f27 f28 (f11 f26 ?v1)) ?v2)) (f11 (f27 f28 (f11 f26 (f11 (f27 f28 ?v0) ?v1))) ?v2))))
(assert (forall ((?v0 S8) (?v1 S3) (?v2 S3)) (let ((?v_0 (f24 f25 ?v0))) (= (f23 (f24 f25 (f23 ?v_0 ?v1)) ?v2) (f23 ?v_0 (f15 (f16 f18 ?v1) ?v2))))))
(assert (forall ((?v0 S8)) (= (f11 (f27 f28 f14) ?v0) f14)))
(assert (forall ((?v0 S8) (?v1 S8)) (= (f11 (f27 f28 (f11 f12 ?v0)) ?v1) (f11 f12 (f11 (f27 f28 ?v0) ?v1)))))
(assert (= f14 f30))
(assert (= f33 (f11 f26 (f11 f13 f14))))
(assert (= (f19 f20 f14) f29))
(assert (= (f11 f26 f14) f30))
(assert (= (f9 f10 f14) f31))
(assert (= (f19 f20 f14) f29))
(assert (= (f11 f26 f14) f30))
(assert (= f29 (f19 f20 f14)))
(assert (= f30 (f11 f26 f14)))
(assert (= (f9 f10 f14) f31))
(assert (= f31 (f9 f10 f14)))
(assert (forall ((?v0 S4)) (= (f6 (f21 f22 (f19 f20 (f11 f13 f14))) ?v0) ?v0)))
(assert (forall ((?v0 S8)) (= (f11 (f27 f28 (f11 f26 (f11 f13 f14))) ?v0) ?v0)))
(assert (forall ((?v0 S4)) (= (f6 (f21 f22 ?v0) (f19 f20 (f11 f13 f14))) ?v0)))
(assert (forall ((?v0 S8)) (= (f11 (f27 f28 ?v0) (f11 f26 (f11 f13 f14))) ?v0)))
(assert (= (f19 f20 (f11 f13 f14)) f32))
(assert (= (f11 f26 (f11 f13 f14)) f33))
(assert (= (f9 f10 (f11 f13 f14)) f34))
(assert (= (f19 f20 (f11 f13 f14)) f32))
(assert (= (f11 f26 (f11 f13 f14)) f33))
(assert (= f32 (f19 f20 (f11 f13 f14))))
(assert (= f33 (f11 f26 (f11 f13 f14))))
(assert (= (f9 f10 (f11 f13 f14)) f34))
(check-sat)
(exit)
